NAME : rnd36_50.tsp.tsp.opt.tour
TYPE : TOUR
DIMENSION : 50
TOUR_SECTION
1
10
48
17
40
25
9
49
28
36
26
33
47
16
30
19
14
4
13
11
18
8
38
29
39
2
23
32
46
27
20
12
3
50
43
35
7
37
22
21
44
45
24
42
6
5
31
15
34
41
-1